1000
750
600
600
600
599
599
598
598
598
598
598
597
597
596
595
595
594
594
593
593
593
592
591
591
591
591
590
589
589
588
588
587
586
586
586
585
585
584
584
583
583
583
582
582
581
581
580
579
579
578
578
578
577
577
577
577
576
576
576
576
575
575
575
575
573
573
572
572
571
571
571
571
570
570
570
570
569
569
568
567
566
566
565
565
564
564
564
562
562
562
562
560
559
558
557
557
557
556
555
554
554
553
553
553
553
553
552
552
552
552
552
552
551
550
549
549
549
548
546
546
546
545
545
545
545
545
544
544
544
543
543
542
542
541
541
540
540
539
539
538
537
537
537
535
535
534
534
534
533
533
532
531
531
530
529
529
529
527
527
527
526
526
525
525
523
520
520
519
519
519
517
517
517
517
516
515
515
512
511
510
507
507
507
506
506
506
506
505
505
505
502
502
501
501
500
500
500
499
499
499
499
499
499
496
496
495
494
492
492
492
491
490
490
490
490
489
489
486
485
485
485
484
484
483
483
482
481
481
481
480
480
479
479
479
478
478
477
477
477
476
475
474
474
474
474
473
472
472
472
472
472
471
471
471
471
471
470
470
469
469
468
468
468
468
467
467
466
466
466
465
465
465
465
465
464
463
462
461
460
459
458
458
458
457
457
456
456
455
453
452
451
451
450
448
448
447
446
446
446
445
444
444
443
443
443
442
442
441
440
440
439
438
438
437
436
436
436
435
435
435
434
434
434
433
432
431
431
430
430
430
430
430
429
428
427
426
425
425
425
424
424
423
423
422
421
420
420
420
419
419
418
418
417
417
417
416
416
416
416
416
416
415
415
415
414
413
413
412
410
410
410
409
409
409
408
407
407
406
406
405
405
404
403
403
403
403
400
400
400
400
399
399
399
398
398
396
396
396
396
396
396
395
395
395
395
395
394
394
394
393
393
393
393
391
390
390
390
389
389
389
388
387
386
385
385
385
384
384
384
383
383
382
382
382
381
380
380
379
379
377
376
375
375
373
372
371
371
371
371
370
370
370
370
369
369
368
368
366
366
366
365
365
365
365
364
364
364
363
363
362
362
362
361
361
361
360
360
360
359
357
357
356
356
356
356
355
354
354
353
353
353
352
352
352
352
352
351
350
350
350
349
348
348
347
346
346
345
344
344
343
343
343
343
342
341
341
341
340
339
339
339
339
338
338
338
338
337
335
335
335
334
333
333
333
331
330
330
328
327
327
326
326
326
325
325
324
324
324
324
323
323
323
322
322
322
322
321
321
321
320
320
319
318
318
316
316
315
315
315
314
313
313
312
312
312
312
312
311
311
311
310
310
310
309
309
309
308
308
308
308
308
308
308
307
307
307
307
306
306
305
303
303
302
302
302
302
301
301
301
301
300
300
297
296
296
296
296
295
295
293
292
292
291
291
291
291
290
289
288
287
287
286
285
284
284
283
283
283
282
281
280
280
280
280
279
279
278
278
277
277
277
276
276
275
275
274
274
273
273
273
273
272
272
271
271
271
270
269
268
268
268
267
267
266
265
265
264
264
264
264
263
263
262
262
261
260
260
258
258
257
257
255
255
253
252
252
252
251
250
249
249
248
248
247
243
242
240
240
239
239
238
238
237
237
235
235
233
233
233
232
231
231
230
230
230
229
229
229
228
228
228
227
226
224
224
223
223
223
222
222
221
219
219
219
219
219
218
218
218
217
216
215
215
215
215
213
213
212
210
208
207
207
207
205
205
204
203
202
202
200
200
200
200
199
199
198
198
196
195
194
194
194
193
193
192
192
192
190
190
189
187
187
187
186
186
185
185
185
185
184
182
182
182
181
181
181
181
180
180
180
178
178
176
176
176
176
175
175
175
174
173
172
171
171
171
170
170
170
170
169
168
168
168
167
167
166
165
165
165
165
164
164
163
163
162
162
161
161
160
160
158
158
157
157
156
156
154
154
154
153
153
152
151
151
151
150
150
150
149
149
149
149
149
149
148
148
147
146
146
146
145
144
143
143
142
142
142
142
141
141
139
139
139
138
136
136
136
136
135
135
135
135
135
135
135
134
133
132
131
130
130
130
127
126
126
126
125
124
123
123
123
123
122
121
121
120
119
118
118
118
118
117
117
116
116
114
114
113
113
112
112
111
108
107
107
107
106
106
106
106
105
105
105
104
103
103
103
102
102
102
100
99
97
97
96
96
95
94
94
94
94
93
93
91
91
90
90
89
89
89
89
87
87
87
86
86
85
84
84
83
82
82
81
80
79
79
78
78
77
75
75
